Tentando empacotar!
W 583 H 233 L 220
Item[0]:155, 50, 26
Item[1]:155, 50, 26
Item[2]:155, 50, 26
Item[3]:155, 50, 26
Item[4]:155, 50, 26
Item[5]:155, 50, 26
Item[6]:155, 50, 26
Item[7]:48, 42, 37
Item[8]:47, 134, 26
Item[9]:47, 134, 26
Item[10]:47, 134, 26
Item[11]:47, 134, 26
Item[12]:204, 174, 150
Item[13]:204, 174, 150
Item[14]:583, 20, 40
Item[15]:583, 20, 40
Item[16]:583, 20, 40
iniciando os testes...
Item alto: 8 
Item alto: 9 
Item alto: 10 
Item alto: 11 
Item alto: 12 
Item alto e profundo: 12 
Item profundo: 12 
Item alto: 13 
Item alto e profundo: 13 
Item profundo: 13 
Item largo: 14 
Item largo: 15 
Item largo: 16 
 ! --------------------------------------------------- CP Optimizer 22.1.1.0 --
 ! Satisfiability problem - 6 variables, 3 constraints
 ! TimeLimit            = 600
 ! Workers              = 1
 ! Initial process time : 0.01s (0.01s extraction + 0.00s propagation)
 !  . Log search space  : 45.7 (before), 45.7 (after)
 !  . Memory usage      : 267.1 kB (before), 267.1 kB (after)
 ! Using sequential search.
 ! ----------------------------------------------------------------------------
 !               Branches  Non-fixed            Branch decision
 *                      7  0.01s                154  = _int0
 ! ----------------------------------------------------------------------------
 ! Search completed, 1 solution found.
 ! ----------------------------------------------------------------------------
 ! Number of branches     : 7
 ! Number of fails        : 0
 ! Total memory usage     : 697.2 kB (653.5 kB CP Optimizer + 43.7 kB Concert)
 ! Time spent in solve    : 0.01s (0.01s engine + 0.01s extraction)
 ! Search speed (br. / s) : 700.0
 ! ----------------------------------------------------------------------------
=======SOLUCAO 2D=======
Item[0]:154 161
Item[1]:85 122
Item[2]:63 43
========================
 ! --------------------------------------------------- CP Optimizer 22.1.1.0 --
 ! Satisfiability problem - 12 variables, 15 constraints
 ! TimeLimit            = 600
 ! Workers              = 1
 ! Initial process time : 0.01s (0.01s extraction + 0.00s propagation)
 !  . Log search space  : 96.1 (before), 96.1 (after)
 !  . Memory usage      : 299.9 kB (before), 299.9 kB (after)
 ! Using sequential search.
 ! ----------------------------------------------------------------------------
 !               Branches  Non-fixed            Branch decision
 *                     73  0.01s                502  = _int0
 ! ----------------------------------------------------------------------------
 ! Search completed, 1 solution found.
 ! ----------------------------------------------------------------------------
 ! Number of branches     : 73
 ! Number of fails        : 30
 ! Total memory usage     : 789.1 kB (730.7 kB CP Optimizer + 58.3 kB Concert)
 ! Time spent in solve    : 0.01s (0.00s engine + 0.01s extraction)
 ! Search speed (br. / s) : 7300.0
 ! ----------------------------------------------------------------------------
=======SOLUCAO 2D=======
Item[0]:502 143
Item[1]:14 105
Item[2]:523 84
Item[3]:520 26
Item[4]:288 44
Item[5]:61 19
========================
 ! --------------------------------------------------- CP Optimizer 22.1.1.0 --
 ! Satisfiability problem - 4 variables, 1 constraint
 ! TimeLimit            = 600
 ! Workers              = 1
 ! Initial process time : 0.01s (0.01s extraction + 0.00s propagation)
 !  . Log search space  : 29.0 (before), 29.0 (after)
 !  . Memory usage      : 267.0 kB (before), 267.0 kB (after)
 ! Using sequential search.
 ! ----------------------------------------------------------------------------
 !               Branches  Non-fixed            Branch decision
 *                      5  0.01s                285  = _int0
 ! ----------------------------------------------------------------------------
 ! Search completed, 1 solution found.
 ! ----------------------------------------------------------------------------
 ! Number of branches     : 5
 ! Number of fails        : 0
 ! Total memory usage     : 694.8 kB (653.6 kB CP Optimizer + 41.2 kB Concert)
 ! Time spent in solve    : 0.01s (0.00s engine + 0.01s extraction)
 ! Search speed (br. / s) : 500.0
 ! ----------------------------------------------------------------------------
=======SOLUCAO 2D=======
Item[0]:285 21
Item[1]:39 58
========================
 ! --------------------------------------------------- CP Optimizer 22.1.1.0 --
 ! Satisfiability problem - 51 variables, 136 constraints
 ! TimeLimit            = 1800
 ! Workers              = 1
 ! Initial process time : 0.01s (0.01s extraction + 0.00s propagation)
 !  . Log search space  : 371.6 (before), 371.6 (after)
 !  . Memory usage      : 399.7 kB (before), 399.7 kB (after)
 ! Using sequential search.
 ! ----------------------------------------------------------------------------
 !               Branches  Non-fixed            Branch decision
                     1000         12             28 != _int4
                     2000          8        F   169  = _int20
 *                   2301  0.02s                179  = _int12
 ! ----------------------------------------------------------------------------
 ! Search completed, 1 solution found.
 ! ----------------------------------------------------------------------------
 ! Number of branches     : 2301
 ! Number of fails        : 1056
 ! Total memory usage     : 2.1 MB (1.8 MB CP Optimizer + 0.3 MB Concert)
 ! Time spent in solve    : 0.02s (0.01s engine + 0.01s extraction)
 ! Search speed (br. / s) : 230100.0
 ! ----------------------------------------------------------------------------
=======SOLUCAO 3D (FINAL)=======
Item[0]:344 3 102
Item[1]:418 141 172
Item[2]:220 152 121
Item[3]:220 68 118
Item[4]:179 5 176
Item[5]:408 61 156
Item[6]:223 114 86
Item[7]:256 46 56
Item[8]:234 28 16
Item[9]:127 9 172
Item[10]:321 12 147
Item[11]:308 79 57
Item[12]:15 21 0
Item[13]:378 58 0
Item[14]:0 0 11
Item[15]:0 0 61
Item[16]:0 198 150
================================
TIME: 0.025
STATUS: 1
Morrendo
